NAME : portcgen-21-21
COMMENT : portcgen N=21, seed=21
TYPE : TSP
DIMENSION : 21
EDGE_WEIGHT_TYPE : EUC_2D
NODE_COORD_SECTION
1 -147473 107748
2 -147320 208436
3 33583 199498
4 11007 146709
5 63740 -75120
6 -244911 328782
7 145823 -52512
8 -143307 148405
9 -56785 48988
10 152224 276180
11 154718 -460521
12 90969 -68029
13 193641 -541681
14 265705 -150658
15 585647 293435
16 347036 -118461
17 326671 20619
18 -340273 -77749
19 85959 -2365
20 -256201 88322
21 -81921 -70488
